results_rootrelaxation/bin012_080_025.srr.sol
solution status: optimal solution found
objective value:                     18.3990384615385
_var124_                            0.168269230769231 	(obj:3)
_var715_                           0.0072115384615383 	(obj:1)
_var724_                            0.355769230769231 	(obj:0)
_var735_                                       0.5625 	(obj:0)
_var743_                            0.168269230769231 	(obj:2)
_var747_                            0.175480769230769 	(obj:1)
_var755_                            0.038461538461538 	(obj:3)
_var768_                           0.0817307692307694 	(obj:1)
_var770_                            0.538461538461539 	(obj:1)
_var775_                            0.413461538461539 	(obj:2)
_var777_                           0.0144230769230768 	(obj:2)
_var783_                            0.305288461538462 	(obj:2)
_var789_                            0.163461538461538 	(obj:2)
_var800_                            0.122596153846154 	(obj:1)
_var802_                            0.129807692307692 	(obj:1)
_var815_                            0.492788461538461 	(obj:2)
_var817_                            0.423076923076923 	(obj:1)
_var819_                                      0.21875 	(obj:2)
_var827_                           0.0817307692307691 	(obj:3)
_var842_                            0.447115384615385 	(obj:1)
_var843_                            0.168269230769231 	(obj:2)
_var846_                            0.423076923076923 	(obj:1)
_var850_                            0.389423076923077 	(obj:1)
_var851_                            0.497596153846154 	(obj:1)
_var862_                            0.170673076923077 	(obj:3)
_var866_                          0.00961538461538458 	(obj:3)
_var870_                            0.185096153846154 	(obj:3)
_var874_                           0.0697115384615388 	(obj:3)
_var875_                            0.319711538461538 	(obj:2)
_var880_                           0.0817307692307694 	(obj:2)
_var881_                                       0.1875 	(obj:2)
_var883_                                       0.1875 	(obj:1)
_var884_                           0.0480769230769228 	(obj:3)
_var889_                            0.447115384615384 	(obj:2)
_var895_                            0.641826923076923 	(obj:2)
_var898_                           0.0745192307692309 	(obj:2)
_var899_                          0.00721153846153846 	(obj:1)
_var900_                           0.0432692307692308 	(obj:3)
_var901_                           0.0504807692307691 	(obj:2)
_var902_                           0.0192307692307689 	(obj:2)
_var904_                           0.0673076923076925 	(obj:3)
_var907_                            0.307692307692307 	(obj:2)
_var908_                            0.057692307692308 	(obj:1)
_var911_                            0.237980769230769 	(obj:3)
_var914_                          0.00721153846153846 	(obj:1)
_var915_                          0.00961538461538458 	(obj:2)
_var916_                           0.0528846153846149 	(obj:2)
_var917_                            0.201923076923077 	(obj:2)
_var922_                            0.137019230769231 	(obj:3)
_var927_                           0.0841346153846158 	(obj:3)
_var933_                            0.175480769230769 	(obj:4)
_var934_                          0.00721153846153794 	(obj:2)
_var935_                            0.194711538461539 	(obj:2)
_var936_                           0.0552884615384611 	(obj:3)
_var938_                           0.0745192307692308 	(obj:2)
_var940_                           0.0480769230769234 	(obj:3)
_var941_                            0.139423076923077 	(obj:1)
_var943_                           0.0673076923076924 	(obj:2)
_var944_                           0.0697115384615387 	(obj:2)
_var947_                           0.0336538461538462 	(obj:3)
_var948_                           0.0384615384615385 	(obj:3)
_var949_                          0.00240384615384615 	(obj:3)
