results_rootrelaxation/bin012_080_025.srr.log
SCIP version 8.0.3.5 [precision: 8 byte] [memory: block] [mode: optimized] [LP solver: Soplex 6.0.1.3] [GitHash: 438792519e]
Copyright (c) 2002-2023 Zuse Institute Berlin (ZIB)

External libraries: 
  Readline 8.1         GNU library for command line editing (gnu.org/s/readline)
  Soplex 6.0.1.3       Linear Programming Solver developed at Zuse Institute Berlin (soplex.zib.de) [GitHash: 713be0fe]
  CppAD 20180000.0     Algorithmic Differentiation of C++ algorithms developed by B. Bell (github.com/coin-or/CppAD)
  ZLIB 1.2.11          General purpose compression library by J. Gailly and M. Adler (zlib.net)
  bliss 0.77           Computing Graph Automorphism Groups by T. Junttila and P. Kaski (www.tcs.hut.fi/Software/bliss/)

user parameter file <scip.set> not found - using default parameters

srr/relaxation = TRUE

read problem <instances/bin012_080_025.srr>
============

Original problem: 
original problem has 0 variables (0 bin, 0 int, 0 impl, 0 cont) and 77 constraints

presolving:
presolving (1 rounds: 1 fast, 1 medium, 1 exhaustive):
 0 deleted vars, 0 deleted constraints, 0 added constraints, 0 tightened bounds, 0 added holes, 0 changed sides, 0 changed coefficients
 0 implications, 0 cliques
presolved problem has 0 variables (0 bin, 0 int, 0 impl, 0 cont) and 77 constraints
     77 constraints of type <linear>
Presolving Time: 0.00

 time | node  | left  |LP iter|LP it/n|mem/heur|mdpt |vars |cons |rows |cuts |sepa|confs|strbr|  dualbound   | primalbound  |  gap   | compl. 
  0.0s|     1 |     0 |     1 |     - |   710k |   0 |   1 |  77 |  77 |   0 |  0 |   0 |   0 |      --      |      --      |    Inf | unknown
r 0.1s|     1 |     0 |   986 |     - |simplero|   0 | 688 |  77 |  77 |   0 |  0 |   0 |   0 |      --      | 3.631759e+01 |    Inf | unknown
r 0.1s|     1 |     0 |  1004 |     - |simplero|   0 | 699 |  77 |  77 |   0 |  0 |   0 |   0 |      --      | 3.581868e+01 |    Inf | unknown
r 0.1s|     1 |     0 |  1034 |     - |simplero|   0 | 710 |  77 |  77 |   0 |  0 |   0 |   0 |      --      | 3.502332e+01 |    Inf | unknown
r 0.1s|     1 |     0 |  1125 |     - |simplero|   0 | 721 |  77 |  77 |   0 |  0 |   0 |   0 |      --      | 3.238479e+01 |    Inf | unknown
r 0.1s|     1 |     0 |  1194 |     - |simplero|   0 | 732 |  77 |  77 |   0 |  0 |   0 |   0 |      --      | 3.081552e+01 |    Inf | unknown
r 0.1s|     1 |     0 |  1266 |     - |simplero|   0 | 743 |  77 |  77 |   0 |  0 |   0 |   0 |      --      | 2.925192e+01 |    Inf | unknown
r 0.1s|     1 |     0 |  1315 |     - |simplero|   0 | 754 |  77 |  77 |   0 |  0 |   0 |   0 |      --      | 2.831066e+01 |    Inf | unknown
r 0.1s|     1 |     0 |  1362 |     - |simplero|   0 | 765 |  77 |  77 |   0 |  0 |   0 |   0 |      --      | 2.689726e+01 |    Inf | unknown
r 0.1s|     1 |     0 |  1387 |     - |simplero|   0 | 765 |  77 |  77 |   0 |  0 |   0 |   0 |      --      | 2.644567e+01 |    Inf | unknown
r 0.1s|     1 |     0 |  1397 |     - |simplero|   0 | 765 |  77 |  77 |   0 |  0 |   0 |   0 |      --      | 2.640003e+01 |    Inf | unknown
r 0.1s|     1 |     0 |  1443 |     - |simplero|   0 | 776 |  77 |  77 |   0 |  0 |   0 |   0 |      --      | 2.480456e+01 |    Inf | unknown
r 0.1s|     1 |     0 |  1455 |     - |simplero|   0 | 776 |  77 |  77 |   0 |  0 |   0 |   0 |      --      | 2.479356e+01 |    Inf | unknown
r 0.1s|     1 |     0 |  1457 |     - |simplero|   0 | 776 |  77 |  77 |   0 |  0 |   0 |   0 |      --      | 2.479100e+01 |    Inf | unknown
r 0.1s|     1 |     0 |  1487 |     - |simplero|   0 | 787 |  77 |  77 |   0 |  0 |   0 |   0 |      --      | 2.428199e+01 |    Inf | unknown
 time | node  | left  |LP iter|LP it/n|mem/heur|mdpt |vars |cons |rows |cuts |sepa|confs|strbr|  dualbound   | primalbound  |  gap   | compl. 
r 0.1s|     1 |     0 |  1514 |     - |simplero|   0 | 787 |  77 |  77 |   0 |  0 |   0 |   0 |      --      | 2.399357e+01 |    Inf | unknown
r 0.1s|     1 |     0 |  1553 |     - |simplero|   0 | 798 |  77 |  77 |   0 |  0 |   0 |   0 |      --      | 2.330721e+01 |    Inf | unknown
r 0.1s|     1 |     0 |  1581 |     - |simplero|   0 | 798 |  77 |  77 |   0 |  0 |   0 |   0 |      --      | 2.312381e+01 |    Inf | unknown
r 0.1s|     1 |     0 |  1587 |     - |simplero|   0 | 798 |  77 |  77 |   0 |  0 |   0 |   0 |      --      | 2.311863e+01 |    Inf | unknown
r 0.1s|     1 |     0 |  1625 |     - |simplero|   0 | 809 |  77 |  77 |   0 |  0 |   0 |   0 |      --      | 2.241998e+01 |    Inf | unknown
r 0.1s|     1 |     0 |  1634 |     - |simplero|   0 | 809 |  77 |  77 |   0 |  0 |   0 |   0 |      --      | 2.238327e+01 |    Inf | unknown
r 0.1s|     1 |     0 |  1676 |     - |simplero|   0 | 820 |  77 |  77 |   0 |  0 |   0 |   0 |      --      | 2.159231e+01 |    Inf | unknown
r 0.1s|     1 |     0 |  1703 |     - |simplero|   0 | 820 |  77 |  77 |   0 |  0 |   0 |   0 |      --      | 2.119234e+01 |    Inf | unknown
r 0.1s|     1 |     0 |  1709 |     - |simplero|   0 | 820 |  77 |  77 |   0 |  0 |   0 |   0 |      --      | 2.114878e+01 |    Inf | unknown
r 0.1s|     1 |     0 |  1710 |     - |simplero|   0 | 820 |  77 |  77 |   0 |  0 |   0 |   0 |      --      | 2.114703e+01 |    Inf | unknown
r 0.1s|     1 |     0 |  1737 |     - |simplero|   0 | 831 |  77 |  77 |   0 |  0 |   0 |   0 |      --      | 2.085260e+01 |    Inf | unknown
r 0.1s|     1 |     0 |  1738 |     - |simplero|   0 | 831 |  77 |  77 |   0 |  0 |   0 |   0 |      --      | 2.083637e+01 |    Inf | unknown
r 0.1s|     1 |     0 |  1747 |     - |simplero|   0 | 831 |  77 |  77 |   0 |  0 |   0 |   0 |      --      | 2.082674e+01 |    Inf | unknown
r 0.1s|     1 |     0 |  1748 |     - |simplero|   0 | 831 |  77 |  77 |   0 |  0 |   0 |   0 |      --      | 2.082667e+01 |    Inf | unknown
r 0.1s|     1 |     0 |  1774 |     - |simplero|   0 | 842 |  77 |  77 |   0 |  0 |   0 |   0 |      --      | 2.048042e+01 |    Inf | unknown
 time | node  | left  |LP iter|LP it/n|mem/heur|mdpt |vars |cons |rows |cuts |sepa|confs|strbr|  dualbound   | primalbound  |  gap   | compl. 
r 0.1s|     1 |     0 |  1789 |     - |simplero|   0 | 842 |  77 |  77 |   0 |  0 |   0 |   0 |      --      | 2.043810e+01 |    Inf | unknown
r 0.1s|     1 |     0 |  1794 |     - |simplero|   0 | 842 |  77 |  77 |   0 |  0 |   0 |   0 |      --      | 2.043539e+01 |    Inf | unknown
r 0.1s|     1 |     0 |  1830 |     - |simplero|   0 | 853 |  77 |  77 |   0 |  0 |   0 |   0 |      --      | 2.009225e+01 |    Inf | unknown
r 0.1s|     1 |     0 |  1845 |     - |simplero|   0 | 853 |  77 |  77 |   0 |  0 |   0 |   0 |      --      | 1.998081e+01 |    Inf | unknown
  0.1s|     1 |     0 |  1850 |     - |  4185k |   0 | 853 |  77 |  77 |   0 |  0 |   0 |   0 |      --      | 1.998081e+01 |    Inf | unknown
r 0.1s|     1 |     0 |  1850 |     - |simplero|   0 | 853 |  77 |  77 |   0 |  0 |   0 |   0 |      --      | 1.997836e+01 |    Inf | unknown
r 0.1s|     1 |     0 |  1851 |     - |simplero|   0 | 853 |  77 |  77 |   0 |  0 |   0 |   0 |      --      | 1.997825e+01 |    Inf | unknown
r 0.1s|     1 |     0 |  1870 |     - |simplero|   0 | 864 |  77 |  77 |   0 |  0 |   0 |   0 |      --      | 1.977273e+01 |    Inf | unknown
r 0.1s|     1 |     0 |  1877 |     - |simplero|   0 | 864 |  77 |  77 |   0 |  0 |   0 |   0 |      --      | 1.974884e+01 |    Inf | unknown
r 0.1s|     1 |     0 |  1914 |     - |simplero|   0 | 875 |  77 |  77 |   0 |  0 |   0 |   0 |      --      | 1.949753e+01 |    Inf | unknown
r 0.1s|     1 |     0 |  1946 |     - |simplero|   0 | 875 |  77 |  77 |   0 |  0 |   0 |   0 |      --      | 1.941329e+01 |    Inf | unknown
r 0.1s|     1 |     0 |  1980 |     - |simplero|   0 | 885 |  77 |  77 |   0 |  0 |   0 |   0 |      --      | 1.914414e+01 |    Inf | unknown
r 0.1s|     1 |     0 |  2009 |     - |simplero|   0 | 895 |  77 |  77 |   0 |  0 |   0 |   0 |      --      | 1.889529e+01 |    Inf | unknown
r 0.1s|     1 |     0 |  2010 |     - |simplero|   0 | 895 |  77 |  77 |   0 |  0 |   0 |   0 |      --      | 1.889476e+01 |    Inf | unknown
r 0.1s|     1 |     0 |  2036 |     - |simplero|   0 | 905 |  77 |  77 |   0 |  0 |   0 |   0 |      --      | 1.868389e+01 |    Inf | unknown
 time | node  | left  |LP iter|LP it/n|mem/heur|mdpt |vars |cons |rows |cuts |sepa|confs|strbr|  dualbound   | primalbound  |  gap   | compl. 
r 0.1s|     1 |     0 |  2039 |     - |simplero|   0 | 905 |  77 |  77 |   0 |  0 |   0 |   0 |      --      | 1.868350e+01 |    Inf | unknown
r 0.1s|     1 |     0 |  2065 |     - |simplero|   0 | 915 |  77 |  77 |   0 |  0 |   0 |   0 |      --      | 1.851840e+01 |    Inf | unknown
r 0.1s|     1 |     0 |  2071 |     - |simplero|   0 | 915 |  77 |  77 |   0 |  0 |   0 |   0 |      --      | 1.851765e+01 |    Inf | unknown
r 0.1s|     1 |     0 |  2096 |     - |simplero|   0 | 926 |  77 |  77 |   0 |  0 |   0 |   0 |      --      | 1.846517e+01 |    Inf | unknown
r 0.1s|     1 |     0 |  2102 |     - |simplero|   0 | 926 |  77 |  77 |   0 |  0 |   0 |   0 |      --      | 1.846296e+01 |    Inf | unknown
r 0.1s|     1 |     0 |  2124 |     - |simplero|   0 | 934 |  77 |  77 |   0 |  0 |   0 |   0 |      --      | 1.842929e+01 |    Inf | unknown
r 0.1s|     1 |     0 |  2134 |     - |simplero|   0 | 940 |  77 |  77 |   0 |  0 |   0 |   0 |      --      | 1.842466e+01 |    Inf | unknown
r 0.1s|     1 |     0 |  2138 |     - |simplero|   0 | 940 |  77 |  77 |   0 |  0 |   0 |   0 |      --      | 1.842085e+01 |    Inf | unknown
r 0.1s|     1 |     0 |  2146 |     - |simplero|   0 | 946 |  77 |  77 |   0 |  0 |   0 |   0 |      --      | 1.840323e+01 |    Inf | unknown
r 0.1s|     1 |     0 |  2150 |     - |simplero|   0 | 948 |  77 |  77 |   0 |  0 |   0 |   0 |      --      | 1.840162e+01 |    Inf | unknown
r 0.1s|     1 |     0 |  2154 |     - |simplero|   0 | 949 |  77 |  77 |   0 |  0 |   0 |   0 |      --      | 1.839905e+01 |    Inf | unknown
r 0.1s|     1 |     0 |  2155 |     - |simplero|   0 | 950 |  77 |  77 |   0 |  0 |   0 |   0 |      --      | 1.839904e+01 |    Inf | unknown
  0.1s|     1 |     0 |  2155 |     - |  4687k |   0 | 950 |  77 |  77 |   0 |  0 |   0 |   0 | 1.839904e+01 | 1.839904e+01 |   0.00%| unknown
  0.1s|     1 |     0 |  2155 |     - |  4687k |   0 | 950 |  77 |  77 |   0 |  0 |   0 |   0 | 1.839904e+01 | 1.839904e+01 |   0.00%| unknown

SCIP Status        : problem is solved [optimal solution found]
Solving Time (sec) : 0.13
Solving Nodes      : 1
Primal Bound       : +1.83990384615385e+01 (55 solutions)
Dual Bound         : +1.83990384615385e+01
Gap                : 0.00 %

written transformed problem to file <results_rootrelaxation/bin012_080_025.srr.lp>
written transformed problem to file <results_rootrelaxation/bin012_080_025.srr.cip>

written solution information to file <results_rootrelaxation/bin012_080_025.srr.sol>



